job_count = 32 ;
duration = [|17, 24, 2, 5|14, 26, 16, 8|17, 23, 8, 3|6, 17, 12, 1|30, 4, 9, 9|12, 25, 17, 1|23, 25, 5, 9|28, 4, 18, 4|24, 4, 8, 6|30, 18, 18, 1|21, 25, 8, 1|27, 8, 3, 6|13, 14, 13, 9|30, 18, 2, 4|23, 7, 3, 7|34, 27, 16, 1|30, 4, 3, 6|21, 9, 12, 3|13, 13, 12, 2|9, 25, 19, 1|24, 20, 13, 8|15, 23, 8, 7|12, 13, 10, 8|31, 3, 2, 6|7, 13, 6, 8|4, 14, 10, 5|25, 9, 16, 2|22, 20, 16, 2|33, 13, 4, 3|13, 23, 9, 7|8, 5, 4, 1|8, 20, 4, 6|] ;
machine_count = 4 ;
cost = [|14, 33, 30, 70|11, 36, 52, 69|15, 36, 55, 44|16, 36, 36, 52|19, 30, 54, 53|17, 26, 57, 60|16, 35, 43, 40|13, 24, 58, 68|10, 30, 49, 69|15, 25, 31, 57|18, 39, 58, 41|10, 35, 36, 44|16, 24, 48, 74|17, 36, 52, 58|14, 24, 43, 74|18, 30, 49, 79|18, 26, 35, 78|15, 30, 41, 59|15, 25, 42, 66|11, 32, 57, 78|10, 26, 31, 65|11, 25, 50, 61|15, 24, 57, 71|18, 21, 57, 48|11, 27, 58, 66|10, 20, 38, 55|11, 29, 51, 43|14, 38, 35, 69|10, 39, 55, 49|14, 32, 33, 53|13, 30, 58, 40|15, 24, 43, 51|] ;
deadline = [67, 67, 67, 67, 67, 67, 67, 67, 67, 67, 67, 67, 67, 67, 67, 67, 67, 67, 67, 67, 67, 67, 67, 67, 67, 67, 67, 67, 67, 67, 67, 67] ;
release = [0, 0, 0, 0, 0, 0, 0, 0, 0, 0, 0, 0, 0, 0, 0, 0, 0, 0, 0, 0, 0, 0, 0, 0, 0, 0, 0, 0, 0, 0, 0, 0] ;
resource = [|8, 8, 8, 8|1, 1, 1, 1|5, 5, 5, 5|7, 7, 7, 7|6, 6, 6, 6|1, 1, 1, 1|7, 7, 7, 7|7, 7, 7, 7|1, 1, 1, 1|2, 2, 2, 2|9, 9, 9, 9|7, 7, 7, 7|1, 1, 1, 1|3, 3, 3, 3|8, 8, 8, 8|9, 9, 9, 9|9, 9, 9, 9|7, 7, 7, 7|1, 1, 1, 1|1, 1, 1, 1|8, 8, 8, 8|5, 5, 5, 5|1, 1, 1, 1|7, 7, 7, 7|5, 5, 5, 5|4, 4, 4, 4|4, 4, 4, 4|9, 9, 9, 9|9, 9, 9, 9|4, 4, 4, 4|9, 9, 9, 9|7, 7, 7, 7|] ;
capacities = [10, 10, 10, 10] ;
